(declare-fun temp102788_1 () (_ BitVec 64))
(declare-fun temp102788_2 () (_ BitVec 64))
(declare-fun var77740 () (_ BitVec 64))
(declare-fun k!0 () Bool)
(declare-fun ARGNAME_filter_NAMEEND_DIM () (_ BitVec 64))
(declare-fun ARGNAME_data_format_NAMEEND_STRFMT () (_ BitVec 64))
(declare-fun temp102788_3 () (_ BitVec 64))
(declare-fun ARGNAME_out_backprop_NAMEEND_DIM () (_ BitVec 64))
(declare-fun var77770 () (_ BitVec 64))
(declare-fun temp102788_4 () (_ BitVec 64))
(declare-fun temp102788_5 () (_ BitVec 64))
(declare-fun ARGNAME_filter_NAMEEND_DIMSIZE
             ()
             (Array (_ BitVec 64) (_ BitVec 64)))
(declare-fun temp102788_6 () (_ BitVec 64))
(declare-fun temp102788_7 () (_ BitVec 64))
(declare-fun temp102788_8 () (_ BitVec 64))
(declare-fun temp102788_9 () (_ BitVec 64))
(declare-fun temp102788_10 () (_ BitVec 64))
(declare-fun temp102788_11 () (_ BitVec 64))
(declare-fun temp102788_12 () (_ BitVec 64))
(declare-fun temp102788_13 () (_ BitVec 64))
(declare-fun temp102788_14 () (_ BitVec 64))
(declare-fun temp102788_15 () (_ BitVec 64))
(declare-fun temp102788_16 () (_ BitVec 64))
(declare-fun temp102788_17 () (_ BitVec 64))
(declare-fun temp102788_18 () (_ BitVec 64))
(declare-fun var77799 () (_ BitVec 64))
(declare-fun temp102788_19 () (_ BitVec 64))
(declare-fun ARGNAME_out_backprop_NAMEEND_DIMSIZE
             ()
             (Array (_ BitVec 64) (_ BitVec 64)))
(declare-fun temp102788_20 () (_ BitVec 64))
(declare-fun temp102788_21 () (_ BitVec 64))
(declare-fun temp102788_22 () (_ BitVec 64))
(declare-fun temp102788_23 () (_ BitVec 64))
(declare-fun temp102788_24 () (_ BitVec 64))
(declare-fun temp102788_25 () (_ BitVec 64))
(declare-fun temp102788_26 () (_ BitVec 64))
(declare-fun temp102788_27 () (_ BitVec 64))
(declare-fun temp102788_28 () (_ BitVec 64))
(declare-fun temp102788_29 () (_ BitVec 64))
(declare-fun temp102788_30 () (_ BitVec 64))
(declare-fun temp102788_31 () (_ BitVec 64))
(declare-fun temp102788_32 () (_ BitVec 64))
(declare-fun var77832 () (_ BitVec 64))
(declare-fun temp102788_33 () (_ BitVec 64))
(declare-fun temp102788_34 () (_ BitVec 64))
(declare-fun var77833 () (_ BitVec 64))
(declare-fun var77834 () (_ BitVec 64))
(declare-fun temp102788_35 () (_ BitVec 64))
(declare-fun temp102788_36 () (_ BitVec 64))
(declare-fun var275510 () (_ BitVec 64))
(declare-fun temp102788_37 () (_ BitVec 64))
(declare-fun var275528 () (_ BitVec 64))
(declare-fun temp102788_38 () (_ BitVec 64))
(declare-fun temp102788_40 () (_ BitVec 64))
(declare-fun temp102788_39 () (_ BitVec 64))
(declare-fun temp102788_41 () (_ BitVec 64))
(declare-fun var472118 () (_ BitVec 64))
(declare-fun temp102788_42 () (_ BitVec 64))
(declare-fun var472136 () (_ BitVec 64))
(declare-fun temp102788_43 () (_ BitVec 64))
(declare-fun temp102788_45 () (_ BitVec 64))
(declare-fun temp102788_44 () (_ BitVec 64))
(declare-fun temp102788_46 () (_ BitVec 64))
(declare-fun var668726 () (_ BitVec 64))
(declare-fun temp102788_47 () (_ BitVec 64))
(declare-fun var668744 () (_ BitVec 64))
(declare-fun temp102788_48 () (_ BitVec 64))
(declare-fun temp102788_50 () (_ BitVec 64))
(declare-fun temp102788_49 () (_ BitVec 64))
(declare-fun temp102788_52 () (_ BitVec 64))
(declare-fun temp102788_51 () (_ BitVec 64))
(declare-fun temp102788_54 () (_ BitVec 64))
(declare-fun temp102788_53 () (_ BitVec 64))
(declare-fun temp102788_56 () (_ BitVec 64))
(declare-fun temp102788_55 () (_ BitVec 64))
(declare-fun temp102788_57 () (_ BitVec 64))
(declare-fun var992331 () (_ BitVec 64))
(declare-fun var992310 () (_ BitVec 64))
(declare-fun var861216 () (_ BitVec 64))
(declare-fun temp102788_58 () (_ BitVec 64))
(declare-fun temp102788_59 () (_ BitVec 64))
(declare-fun var1057867 () (_ BitVec 64))
(declare-fun var1057846 () (_ BitVec 64))
(declare-fun var861219 () (_ BitVec 64))
(declare-fun temp102788_60 () (_ BitVec 64))
(declare-fun temp102788_61 () (_ BitVec 64))
(declare-fun var1254450 () (_ BitVec 64))
(declare-fun temp102788_62 () (_ BitVec 64))
(declare-fun var1319986 () (_ BitVec 64))
(declare-fun temp102788_63 () (_ BitVec 64))
(declare-fun var1385522 () (_ BitVec 64))
(declare-fun temp102788_65 () (_ BitVec 64))
(declare-fun temp102788_64 () (_ BitVec 64))
(declare-fun temp102788_67 () (_ BitVec 64))
(declare-fun temp102788_66 () (_ BitVec 64))
(assert (or (= ARGNAME_data_format_NAMEEND_STRFMT #x0000000000000000)
    (= ARGNAME_data_format_NAMEEND_STRFMT #x0000000000000001)
    (= ARGNAME_data_format_NAMEEND_STRFMT #x0000000000000002)
    (= ARGNAME_data_format_NAMEEND_STRFMT #x0000000000000003)
    (= ARGNAME_data_format_NAMEEND_STRFMT #x0000000000000004)
    (= ARGNAME_data_format_NAMEEND_STRFMT #x0000000000000005)))
(assert (= temp102788_1 #x0000000000000005))
(assert (= var77740
   (ite (= ARGNAME_filter_NAMEEND_DIM temp102788_1)
        #x0000000000000001
        #x0000000000000000)))
(assert (= temp102788_2 #x0000000000000001))
(assert (= var77740 temp102788_2))
(assert (= temp102788_3 #x0000000000000005))
(assert (= var77770
   (ite (= ARGNAME_out_backprop_NAMEEND_DIM temp102788_3)
        #x0000000000000001
        #x0000000000000000)))
(assert (= temp102788_4 #x0000000000000001))
(assert (= var77770 temp102788_4))
(assert (= temp102788_5 #x0000000000000000))
(assert (= temp102788_6 (select ARGNAME_filter_NAMEEND_DIMSIZE temp102788_5)))
(assert (= temp102788_7 #x0000000000000001))
(assert (= temp102788_8 (select ARGNAME_filter_NAMEEND_DIMSIZE temp102788_7)))
(assert (= temp102788_9 #x0000000000000002))
(assert (= temp102788_10 (select ARGNAME_filter_NAMEEND_DIMSIZE temp102788_9)))
(assert (= temp102788_11 #x0000000000000003))
(assert (= temp102788_12 (select ARGNAME_filter_NAMEEND_DIMSIZE temp102788_11)))
(assert (= temp102788_13 #x0000000000000004))
(assert (= temp102788_14 (select ARGNAME_filter_NAMEEND_DIMSIZE temp102788_13)))
(assert (= temp102788_15 #x0000000000000005))
(assert (= temp102788_16 (select ARGNAME_filter_NAMEEND_DIMSIZE temp102788_15)))
(assert (= temp102788_17 #x0000000000000003))
(assert (= temp102788_18 (select ARGNAME_filter_NAMEEND_DIMSIZE temp102788_17)))
(assert (= var77799 temp102788_18))
(assert (= temp102788_19 #x0000000000000000))
(assert (= temp102788_20 (select ARGNAME_out_backprop_NAMEEND_DIMSIZE temp102788_19)))
(assert (= temp102788_21 #x0000000000000001))
(assert (= temp102788_22 (select ARGNAME_out_backprop_NAMEEND_DIMSIZE temp102788_21)))
(assert (= temp102788_23 #x0000000000000002))
(assert (= temp102788_24 (select ARGNAME_out_backprop_NAMEEND_DIMSIZE temp102788_23)))
(assert (= temp102788_25 #x0000000000000003))
(assert (= temp102788_26 (select ARGNAME_out_backprop_NAMEEND_DIMSIZE temp102788_25)))
(assert (= temp102788_27 #x0000000000000004))
(assert (= temp102788_28 (select ARGNAME_out_backprop_NAMEEND_DIMSIZE temp102788_27)))
(assert (= temp102788_29 #x0000000000000005))
(assert (= temp102788_30 (select ARGNAME_out_backprop_NAMEEND_DIMSIZE temp102788_29)))
(assert (= temp102788_31 #x0000000000000004))
(assert (= temp102788_32 (select ARGNAME_out_backprop_NAMEEND_DIMSIZE temp102788_31)))
(assert (= var77832 temp102788_32))
(assert (= temp102788_33 #x0000000000000004))
(assert (= temp102788_34 (select ARGNAME_filter_NAMEEND_DIMSIZE temp102788_33)))
(assert (= var77833 temp102788_34))
(assert (= var77834 (ite (= var77832 var77833) #x0000000000000001 #x0000000000000000)))
(assert (= temp102788_35 #x0000000000000001))
(assert (= var77834 temp102788_35))
(assert (= temp102788_36 #x0000000000000001))
(assert (= var275510 temp102788_36))
(assert (= temp102788_37 #x0000000000000001))
(assert (= var275528
   (ite (bvslt var275510 temp102788_37) #x0000000000000001 #x0000000000000000)))
(assert (= temp102788_38 #x0000000000000000))
(assert (= var275528 temp102788_38))
(assert (= temp102788_40 #x0000000000000000))
(assert (= temp102788_39 temp102788_40))
(assert (= temp102788_41 #x0000000000000001))
(assert (= var472118 temp102788_41))
(assert (= temp102788_42 #x0000000000000001))
(assert (= var472136
   (ite (bvslt var472118 temp102788_42) #x0000000000000001 #x0000000000000000)))
(assert (= temp102788_43 #x0000000000000000))
(assert (= var472136 temp102788_43))
(assert (= temp102788_45 #x0000000000000000))
(assert (= temp102788_44 temp102788_45))
(assert (= temp102788_46 #x0000000000000001))
(assert (= var668726 temp102788_46))
(assert (= temp102788_47 #x0000000000000001))
(assert (= var668744
   (ite (bvslt var668726 temp102788_47) #x0000000000000001 #x0000000000000000)))
(assert (= temp102788_48 #x0000000000000000))
(assert (= var668744 temp102788_48))
(assert (= temp102788_50 #x0000000000000000))
(assert (= temp102788_49 temp102788_50))
(assert (= temp102788_52 #x00000000000000ff))
(assert (= temp102788_51 temp102788_52))
(assert (= temp102788_54 #x00000000000000ff))
(assert (= temp102788_53 temp102788_54))
(assert (= temp102788_56 #x00000000000000ff))
(assert (= temp102788_55 temp102788_56))
(assert (= temp102788_57 #x0000000000000000))
(assert (= var992331 temp102788_57))
(assert (= var992310 var992331))
(assert (= var861216 var992310))
(assert (= temp102788_58 #x0000000000000000))
(assert (= var861216 temp102788_58))
(assert (= temp102788_59 #x0000000000000000))
(assert (= var1057867 temp102788_59))
(assert (= var1057846 var1057867))
(assert (= var861219 var1057846))
(assert (= temp102788_60 #x0000000000000000))
(assert (= var861219 temp102788_60))
(assert (= temp102788_61 #x0000000000008000))
(assert (= var1254450 temp102788_61))
(assert (= temp102788_62 #x0000000000040000))
(assert (= var1319986 temp102788_62))
(assert (= temp102788_63 #x0000000000200000))
(assert (= var1385522 temp102788_63))
(assert (= temp102788_65 #x0000000000000001))
(assert (= temp102788_64 temp102788_65))
(assert (= temp102788_67 #x0000000000000001))
(assert (= temp102788_66 temp102788_67))
(model-add temp102788_1 () (_ BitVec 64) #x0000000000000005)
(model-add temp102788_2 () (_ BitVec 64) #x0000000000000001)
(model-add var77740 () (_ BitVec 64) #x0000000000000001)
(model-del k!0)
(model-add ARGNAME_filter_NAMEEND_DIM
           ()
           (_ BitVec 64)
           (ite k!0 #x0000000000000005 (bvnot #x0000000000000005)))


